N = 9;
H = 6;
T = 2;

avail = array3d(1..N, 1..H, 1..T, [9, 0, 2, 8, 10, 7, 2, 9, 0, 10, 8, 9, 8, 1, 2, 7, 1, 6, 0, 0, 3, 2, 9, 3, 10, 8, 1, 3, 7, 3, 2, 10, 8, 3, 10, 6, 3, 1, 7, 2, 1, 2, 5, 3, 9, 0, 0, 6, 9, 9, 7, 10, 7, 1, 4, 1, 6, 6, 6, 7, 1, 10, 10, 1, 4, 1, 7, 8, 6, 6, 0, 5, 1, 9, 0, 0, 6, 6, 4, 1, 2, 0, 8, 6, 7, 4, 9, 0, 2, 1, 0, 9, 3, 8, 2, 5, 5, 8, 3, 1, 1, 3, 1, 7, 0, 8, 5, 9]);

r = array2d(1..H, 1..T, [4, 1, 0, 1, 0, 3, 1, 2, 5, 4, 0, 1]);
